NAME: rue_20_7
TYPE: TSP
DIMENSION: 20
EDGE_WEIGHT_TYPE: EUC_2D
NODE_COORD_SECTION
1 79 91
2 87 57
3 25 22
4 61 48
5 60 61
6 1 99
7 53 16
8 86 11
9 85 64
10 73 12
11 97 94
12 24 36
13 53 79
14 98 88
15 85 35
16 2 81
17 17 42
18 80 35
19 42 84
20 78 14
